benchmarks_vrp/CMT5/fixed_c_size/CMT5_3.vrp
NAME: CMT5_3
TYPE: CVRP
COMMENT: 1291.29 - Cluster Nr.3
DIMENSION: 11
CAPACITY: 200
EDGE_WEIGHT_TYPE: EUC_2D
NODE_COORD_TYPE: TWOD_COORDS
NODE_COORD_SECTION: 
11 67 5
4 62 24
2 35 35
10 55 20
6 60 12
7 60 15
8 65 20
9 66 14
3 63 23
5 59 15
1 55 20
DEPOT_SECTION: 
2
-1
DEMAND_SECTION: 
7 14
8 6
1 19
5 14
10 21
11 25
6 31
2 0
3 2
4 8
9 22
EOF
