benchmarks_vrp/CMT5/fixed_c_size/CMT5_3.tour
NAME: CMT5_3 solution
TYPE: TOUR
TOUR_SECTION:
2 4 3 8 9 11 6 7 5 1 10 -1
-1
EOF